c BabySAT DPLL SAT Solver
c
c Copyright (c) 2026, Benjamin Deutsch
c Version 0.0.4 3f70528ad16f8c5ae9a5b9cc5ac28edf924451f6
c Compiled with 'g++ -Wall -std=c++11 -O3 -DNDEBUG'
c
c reading from 'cnfs/prime65537.cnf'
c parsed header 'p cnf 1950 6220'
c
c             decisions             variables
c   seconds              conflicts            remaining
c
c *    0.01           0           0      1948 100%
c d    0.01           1           0      1876  96%
c d    0.01           2           0      1876  96%
c d    0.01           4           0      1876  96%
c d    0.01           8           0      1876  96%
c d    0.01          16           1      1876  96%
c d    0.01          32          16      1876  96%
c d    0.01          64          49      1876  96%
c d    0.01         128         109      1876  96%
c d    0.01         256         239      1876  96%
c d    0.01         512         491      1876  96%
c d    0.01        1024        1008      1876  96%
c d    0.02        2048        2032      1876  96%
c d    0.03        4096        4077      1876  96%
c d    0.06        8192        8182      1876  96%
c d    0.11       16384       16371      1876  96%
c 0    0.12       18897       18898      1842  94%
c
s UNSATISFIABLE
c
c conflicts:                 18898    154503.98 per second
c decisions:                 18897    154495.81 per second
c propagations:                  0         0.00 million per second
c
c process-time:               0.12 seconds
c
c exit code 20
